TYPE : Vertex Cover
DIMENSION: 36
EDGE_DATA_SECTION:
0 9
0 17
0 22
1 5
1 10
1 22
1 25
2 6
2 7
2 8
2 12
2 15
2 20
2 31
4 20
5 18
5 31
6 8
6 9
6 13
7 20
7 33
8 15
8 16
8 31
9 17
9 20
9 31
9 34
10 13
10 21
10 26
11 16
11 26
11 28
11 29
12 14
12 15
12 20
12 21
12 25
13 14
13 17
13 19
14 15
14 21
14 35
15 31
15 35
16 18
16 19
16 22
16 24
16 25
16 29
16 32
16 34
18 22
18 26
18 33
18 35
20 34
20 35
21 27
22 24
22 31
22 35
24 35
25 26
25 28
25 29
25 34
26 29
26 33
31 32
31 34
32 34
33 34
34 35
-1
VERTEX_DEGREE:
3.0 4.0 7.0 0.0 1.0 3.0 4.0 3.0 5.0 6.0 4.0 4.0 6.0 5.0 5.0 6.0 10.0 3.0 6.0 2.0 7.0 4.0 7.0 0.0 3.0 7.0 6.0 1.0 2.0 4.0 0.0 8.0 3.0 4.0 8.0 7.0
VERTEX_COVER:
1 6 7 8 9 12 13 15 16 17 18 20 21 22 26 28 29 31 34 35
EOF
